p tw 172 180
1 2
2 85
3 14
4 5
5 6
6 99
7 8
8 9
9 92
10 11
11 12
12 13
13 15
14 25
15 87
16 17
17 18
18 19
19 20
20 21
21 22
21 48
22 23
23 24
24 26
25 36
25 83
26 27
27 28
28 29
28 44
29 30
30 31
31 32
32 33
33 34
34 35
35 37
36 47
37 38
38 39
39 40
40 41
41 42
42 43
43 44
44 45
45 46
46 18
47 58
48 49
49 50
50 51
51 52
52 53
53 54
54 55
54 81
55 56
56 57
57 59
58 69
59 60
60 61
60 63
61 62
62 65
63 64
64 65
65 66
66 67
67 68
68 70
69 80
70 71
70 73
71 72
72 75
73 74
74 75
75 76
76 77
77 78
78 79
79 51
80 162
81 82
83 84
84 86
85 96
86 87
87 88
88 89
89 90
90 91
90 16
91 92
92 93
93 94
94 95
95 97
95 10
96 107
97 98
98 99
99 100
100 101
101 102
102 103
103 104
104 105
104 7
105 106
106 108
107 118
108 109
109 110
110 111
111 112
112 113
113 114
114 115
115 116
116 117
117 119
118 129
119 120
120 121
121 122
122 123
123 124
124 125
125 126
126 127
127 128
128 130
129 140
130 131
131 132
132 133
133 134
134 135
135 136
136 137
137 138
138 139
139 141
140 151
141 142
142 143
143 144
144 145
145 146
146 147
147 148
148 149
149 150
150 152
151 162
152 153
153 154
154 155
155 156
156 157
157 158
158 159
159 160
160 161
161 163
162 3
163 164
164 165
165 166
166 167
167 168
168 169
169 170
170 171
171 172
172 4
